38
120
96	1
92	1
90	1
86	3
84	1
79	1
73	2
69	1
68	1
64	1
63	1
61	1
60	2
59	1
56	1
55	1
52	1
50	2
49	2
47	1
43	1
42	1
40	2
39	1
38	1
37	1
33	1
30	1
28	1
27	2
26	1
24	3
23	1
22	1
20	1
19	2
18	2
17	1
